60 1770
1 2 99
1 3 118
1 4 144
1 5 73
1 6 8
1 7 155
1 8 112
1 9 158
1 10 7
1 11 143
1 12 113
1 13 80
1 14 27
1 15 44
1 16 65
1 17 175
1 18 30
1 19 86
1 20 125
1 21 146
1 22 121
1 23 137
1 24 106
1 25 41
1 26 129
1 27 103
1 28 144
1 29 5
1 30 58
1 31 0
1 32 132
1 33 110
1 34 164
1 35 105
1 36 179
1 37 27
1 38 31
1 39 2
1 40 68
1 41 38
1 42 105
1 43 147
1 44 18
1 45 113
1 46 135
1 47 100
1 48 108
1 49 109
1 50 158
1 51 11
1 52 67
1 53 124
1 54 131
1 55 91
1 56 78
1 57 155
1 58 157
1 59 33
1 60 85
2 3 135
2 4 16
2 5 94
2 6 14
2 7 31
2 8 9
2 9 38
2 10 47
2 11 144
2 12 133
2 13 162
2 14 173
2 15 152
2 16 141
2 17 118
2 18 31
2 19 32
2 20 76
2 21 172
2 22 133
2 23 142
2 24 175
2 25 94
2 26 82
2 27 128
2 28 135
2 29 16
2 30 64
2 31 8
2 32 44
2 33 126
2 34 165
2 35 94
2 36 133
2 37 150
2 38 69
2 39 91
2 40 29
2 41 120
2 42 70
2 43 35
2 44 111
2 45 20
2 46 177
2 47 72
2 48 160
2 49 13
2 50 146
2 51 52
2 52 81
2 53 22
2 54 58
2 55 116
2 56 92
2 57 177
2 58 4
2 59 82
2 60 36
3 4 169
3 5 20
3 6 160
3 7 10
3 8 31
3 9 15
3 10 124
3 11 22
3 12 70
3 13 137
3 14 63
3 15 94
3 16 14
3 17 122
3 18 57
3 19 147
3 20 8
3 21 136
3 22 121
3 23 12
3 24 148
3 25 59
3 26 160
3 27 143
3 28 110
3 29 35
3 30 171
3 31 100
3 32 0
3 33 130
3 34 130
3 35 173
3 36 1
3 37 151
3 38 178
3 39 86
3 40 19
3 41 54
3 42 152
3 43 77
3 44 73
3 45 129
3 46 9
3 47 64
3 48 104
3 49 151
3 50 167
3 51 121
3 52 91
3 53 36
3 54 114
3 55 97
3 56 87
3 57 69
3 58 164
3 59 146
3 60 34
4 5 30
4 6 77
4 7 97
4 8 114
4 9 35
4 10 29
4 11 1
4 12 82
4 13 20
4 14 128
4 15 113
4 16 162
4 17 179
4 18 158
4 19 40
4 20 74
4 21 79
4 22 116
4 23 147
4 24 174
4 25 154
4 26 85
4 27 57
4 28 145
4 29 94
4 30 113
4 31 156
4 32 136
4 33 125
4 34 142
4 35 31
4 36 173
4 37 133
4 38 154
4 39 169
4 40 28
4 41 35
4 42 3
4 43 23
4 44 131
4 45 95
4 46 2
4 47 54
4 48 166
4 49 146
4 50 111
4 51 163
4 52 124
4 53 119
4 54 37
4 55 1
4 56 158
4 57 91
4 58 159
4 59 93
4 60 134
5 6 7
5 7 35
5 8 78
5 9 137
5 10 7
5 11 54
5 12 159
5 13 102
5 14 14
5 15 4
5 16 106
5 17 68
5 18 96
5 19 112
5 20 124
5 21 67
5 22 17
5 23 11
5 24 158
5 25 154
5 26 136
5 27 51
5 28 61
5 29 84
5 30 74
5 31 25
5 32 137
5 33 159
5 34 39
5 35 105
5 36 59
5 37 22
5 38 80
5 39 58
5 40 172
5 41 143
5 42 15
5 43 95
5 44 77
5 45 46
5 46 19
5 47 45
5 48 92
5 49 83
5 50 179
5 51 113
5 52 16
5 53 96
5 54 154
5 55 94
5 56 158
5 57 114
5 58 78
5 59 142
5 60 8
6 7 81
6 8 168
6 9 59
6 10 58
6 11 10
6 12 6
6 13 58
6 14 119
6 15 73
6 16 93
6 17 161
6 18 24
6 19 146
6 20 20
6 21 174
6 22 124
6 23 89
6 24 133
6 25 76
6 26 173
6 27 79
6 28 152
6 29 38
6 30 12
6 31 129
6 32 5
6 33 17
6 34 11
6 35 88
6 36 120
6 37 26
6 38 115
6 39 42
6 40 57
6 41 48
6 42 8
6 43 10
6 44 39
6 45 3
6 46 172
6 47 68
6 48 94
6 49 55
6 50 159
6 51 154
6 52 96
6 53 13
6 54 83
6 55 138
6 56 161
6 57 97
6 58 108
6 59 164
6 60 60
7 8 0
7 9 72
7 10 24
7 11 154
7 12 5
7 13 157
7 14 18
7 15 55
7 16 6
7 17 173
7 18 174
7 19 58
7 20 62
7 21 130
7 22 150
7 23 125
7 24 76
7 25 166
7 26 133
7 27 177
7 28 58
7 29 109
7 30 15
7 31 48
7 32 146
7 33 59
7 34 117
7 35 95
7 36 101
7 37 110
7 38 18
7 39 36
7 40 164
7 41 67
7 42 9
7 43 122
7 44 175
7 45 128
7 46 81
7 47 64
7 48 153
7 49 164
7 50 133
7 51 141
7 52 115
7 53 105
7 54 77
7 55 161
7 56 64
7 57 131
7 58 94
7 59 173
7 60 70
8 9 127
8 10 67
8 11 115
8 12 139
8 13 65
8 14 21
8 15 136
8 16 31
8 17 47
8 18 125
8 19 82
8 20 108
8 21 98
8 22 20
8 23 59
8 24 33
8 25 96
8 26 1
8 27 78
8 28 145
8 29 154
8 30 160
8 31 159
8 32 89
8 33 49
8 34 41
8 35 76
8 36 112
8 37 38
8 38 81
8 39 166
8 40 43
8 41 109
8 42 156
8 43 127
8 44 145
8 45 16
8 46 102
8 47 117
8 48 114
8 49 54
8 50 102
8 51 173
8 52 162
8 53 90
8 54 69
8 55 70
8 56 126
8 57 119
8 58 146
8 59 29
8 60 115
9 10 33
9 11 94
9 12 157
9 13 47
9 14 149
9 15 70
9 16 16
9 17 15
9 18 83
9 19 91
9 20 70
9 21 71
9 22 41
9 23 141
9 24 61
9 25 106
9 26 0
9 27 46
9 28 110
9 29 101
9 30 65
9 31 125
9 32 80
9 33 48
9 34 3
9 35 16
9 36 139
9 37 1
9 38 97
9 39 57
9 40 137
9 41 178
9 42 16
9 43 116
9 44 65
9 45 115
9 46 30
9 47 69
9 48 174
9 49 85
9 50 10
9 51 124
9 52 170
9 53 38
9 54 34
9 55 106
9 56 18
9 57 101
9 58 43
9 59 127
9 60 56
10 11 135
10 12 47
10 13 62
10 14 93
10 15 179
10 16 24
10 17 36
10 18 124
10 19 15
10 20 49
10 21 128
10 22 111
10 23 6
10 24 26
10 25 4
10 26 81
10 27 12
10 28 113
10 29 63
10 30 103
10 31 100
10 32 98
10 33 61
10 34 75
10 35 51
10 36 2
10 37 19
10 38 135
10 39 76
10 40 128
10 41 57
10 42 107
10 43 159
10 44 115
10 45 86
10 46 74
10 47 165
10 48 64
10 49 179
10 50 140
10 51 153
10 52 167
10 53 161
10 54 126
10 55 152
10 56 127
10 57 135
10 58 68
10 59 69
10 60 20
11 12 107
11 13 1
11 14 48
11 15 55
11 16 51
11 17 111
11 18 115
11 19 39
11 20 128
11 21 158
11 22 170
11 23 4
11 24 62
11 25 153
11 26 17
11 27 50
11 28 122
11 29 17
11 30 73
11 31 1
11 32 22
11 33 161
11 34 155
11 35 116
11 36 82
11 37 29
11 38 105
11 39 130
11 40 62
11 41 127
11 42 138
11 43 90
11 44 53
11 45 54
11 46 137
11 47 75
11 48 177
11 49 16
11 50 157
11 51 111
11 52 129
11 53 77
11 54 149
11 55 25
11 56 26
11 57 142
11 58 68
11 59 127
11 60 31
12 13 144
12 14 50
12 15 70
12 16 16
12 17 67
12 18 50
12 19 76
12 20 53
12 21 61
12 22 70
12 23 49
12 24 20
12 25 6
12 26 21
12 27 166
12 28 94
12 29 141
12 30 112
12 31 92
12 32 15
12 33 111
12 34 124
12 35 113
12 36 63
12 37 101
12 38 46
12 39 147
12 40 99
12 41 146
12 42 150
12 43 174
12 44 121
12 45 105
12 46 143
12 47 161
12 48 146
12 49 140
12 50 40
12 51 62
12 52 164
12 53 7
12 54 88
12 55 58
12 56 35
12 57 10
12 58 111
12 59 158
12 60 156
13 14 107
13 15 89
13 16 170
13 17 120
13 18 170
13 19 91
13 20 45
13 21 48
13 22 163
13 23 153
13 24 20
13 25 166
13 26 107
13 27 5
13 28 64
13 29 97
13 30 137
13 31 174
13 32 143
13 33 125
13 34 16
13 35 131
13 36 149
13 37 66
13 38 92
13 39 164
13 40 124
13 41 132
13 42 33
13 43 108
13 44 155
13 45 175
13 46 8
13 47 96
13 48 26
13 49 74
13 50 16
13 51 22
13 52 67
13 53 36
13 54 16
13 55 129
13 56 91
13 57 41
13 58 95
13 59 73
13 60 159
14 15 3
14 16 104
14 17 52
14 18 119
14 19 134
14 20 29
14 21 158
14 22 118
14 23 157
14 24 123
14 25 118
14 26 42
14 27 110
14 28 179
14 29 80
14 30 109
14 31 54
14 32 135
14 33 174
14 34 6
14 35 99
14 36 73
14 37 119
14 38 40
14 39 86
14 40 7
14 41 153
14 42 164
14 43 32
14 44 172
14 45 36
14 46 45
14 47 8
14 48 108
14 49 16
14 50 139
14 51 87
14 52 107
14 53 147
14 54 172
14 55 18
14 56 178
14 57 58
14 58 163
14 59 109
14 60 127
15 16 115
15 17 142
15 18 18
15 19 15
15 20 157
15 21 94
15 22 14
15 23 122
15 24 96
15 25 155
15 26 108
15 27 141
15 28 155
15 29 36
15 30 123
15 31 134
15 32 0
15 33 155
15 34 84
15 35 67
15 36 151
15 37 145
15 38 37
15 39 128
15 40 43
15 41 56
15 42 155
15 43 153
15 44 162
15 45 71
15 46 170
15 47 135
15 48 4
15 49 102
15 50 40
15 51 165
15 52 147
15 53 169
15 54 25
15 55 146
15 56 93
15 57 19
15 58 120
15 59 127
15 60 117
16 17 119
16 18 42
16 19 29
16 20 18
16 21 100
16 22 0
16 23 40
16 24 76
16 25 25
16 26 145
16 27 31
16 28 53
16 29 163
16 30 138
16 31 135
16 32 109
16 33 80
16 34 43
16 35 123
16 36 129
16 37 84
16 38 6
16 39 16
16 40 172
16 41 39
16 42 105
16 43 67
16 44 41
16 45 47
16 46 57
16 47 36
16 48 30
16 49 93
16 50 126
16 51 78
16 52 37
16 53 104
16 54 66
16 55 48
16 56 48
16 57 69
16 58 100
16 59 5
16 60 108
17 18 151
17 19 104
17 20 48
17 21 46
17 22 179
17 23 115
17 24 24
17 25 158
17 26 178
17 27 37
17 28 109
17 29 97
17 30 41
17 31 53
17 32 160
17 33 170
17 34 16
17 35 102
17 36 53
17 37 6
17 38 90
17 39 77
17 40 154
17 41 135
17 42 58
17 43 18
17 44 59
17 45 4
17 46 76
17 47 24
17 48 113
17 49 24
17 50 164
17 51 48
17 52 163
17 53 67
17 54 126
17 55 75
17 56 76
17 57 178
17 58 133
17 59 18
17 60 159
18 19 45
18 20 25
18 21 31
18 22 29
18 23 41
18 24 101
18 25 174
18 26 160
18 27 134
18 28 135
18 29 125
18 30 31
18 31 73
18 32 145
18 33 115
18 34 140
18 35 62
18 36 14
18 37 159
18 38 136
18 39 98
18 40 8
18 41 167
18 42 174
18 43 10
18 44 135
18 45 94
18 46 28
18 47 120
18 48 99
18 49 138
18 50 84
18 51 53
18 52 134
18 53 58
18 54 63
18 55 31
18 56 122
18 57 7
18 58 109
18 59 48
18 60 173
19 20 178
19 21 0
19 22 108
19 23 82
19 24 168
19 25 79
19 26 144
19 27 120
19 28 12
19 29 111
19 30 61
19 31 173
19 32 90
19 33 23
19 34 179
19 35 148
19 36 8
19 37 85
19 38 112
19 39 152
19 40 136
19 41 113
19 42 13
19 43 16
19 44 84
19 45 138
19 46 157
19 47 13
19 48 30
19 49 100
19 50 52
19 51 63
19 52 143
19 53 67
19 54 150
19 55 89
19 56 42
19 57 137
19 58 95
19 59 105
19 60 24
20 21 90
20 22 112
20 23 17
20 24 41
20 25 76
20 26 109
20 27 8
20 28 20
20 29 145
20 30 178
20 31 165
20 32 4
20 33 146
20 34 122
20 35 158
20 36 22
20 37 43
20 38 88
20 39 155
20 40 86
20 41 153
20 42 131
20 43 136
20 44 174
20 45 55
20 46 51
20 47 126
20 48 172
20 49 138
20 50 173
20 51 150
20 52 91
20 53 158
20 54 46
20 55 45
20 56 33
20 57 91
20 58 42
20 59 38
20 60 94
21 22 153
21 23 162
21 24 38
21 25 132
21 26 121
21 27 97
21 28 52
21 29 44
21 30 71
21 31 175
21 32 6
21 33 57
21 34 18
21 35 99
21 36 13
21 37 148
21 38 158
21 39 113
21 40 12
21 41 33
21 42 60
21 43 75
21 44 60
21 45 19
21 46 120
21 47 17
21 48 69
21 49 20
21 50 150
21 51 132
21 52 49
21 53 65
21 54 93
21 55 109
21 56 111
21 57 113
21 58 88
21 59 82
21 60 145
22 23 70
22 24 80
22 25 112
22 26 74
22 27 89
22 28 143
22 29 168
22 30 161
22 31 64
22 32 172
22 33 96
22 34 97
22 35 33
22 36 162
22 37 31
22 38 161
22 39 83
22 40 96
22 41 95
22 42 152
22 43 127
22 44 14
22 45 132
22 46 163
22 47 167
22 48 16
22 49 113
22 50 176
22 51 170
22 52 131
22 53 160
22 54 78
22 55 131
22 56 151
22 57 116
22 58 71
22 59 48
22 60 13
23 24 39
23 25 56
23 26 7
23 27 158
23 28 29
23 29 126
23 30 98
23 31 17
23 32 31
23 33 68
23 34 24
23 35 77
23 36 73
23 37 82
23 38 56
23 39 59
23 40 60
23 41 56
23 42 22
23 43 54
23 44 47
23 45 35
23 46 42
23 47 93
23 48 8
23 49 41
23 50 37
23 51 93
23 52 136
23 53 133
23 54 72
23 55 163
23 56 109
23 57 153
23 58 147
23 59 167
23 60 81
24 25 81
24 26 153
24 27 42
24 28 132
24 29 122
24 30 165
24 31 2
24 32 149
24 33 119
24 34 113
24 35 38
24 36 128
24 37 151
24 38 42
24 39 53
24 40 113
24 41 28
24 42 18
24 43 144
24 44 121
24 45 178
24 46 59
24 47 10
24 48 129
24 49 79
24 50 56
24 51 85
24 52 1
24 53 37
24 54 55
24 55 134
24 56 47
24 57 179
24 58 179
24 59 35
24 60 54
25 26 65
25 27 145
25 28 123
25 29 80
25 30 10
25 31 128
25 32 160
25 33 93
25 34 129
25 35 1
25 36 42
25 37 21
25 38 164
25 39 69
25 40 122
25 41 65
25 42 100
25 43 60
25 44 178
25 45 80
25 46 85
25 47 161
25 48 67
25 49 115
25 50 135
25 51 112
25 52 38
25 53 71
25 54 81
25 55 99
25 56 144
25 57 177
25 58 102
25 59 83
25 60 97
26 27 123
26 28 135
26 29 162
26 30 78
26 31 165
26 32 32
26 33 157
26 34 71
26 35 50
26 36 14
26 37 84
26 38 102
26 39 153
26 40 42
26 41 165
26 42 159
26 43 120
26 44 101
26 45 67
26 46 58
26 47 58
26 48 123
26 49 179
26 50 104
26 51 102
26 52 38
26 53 11
26 54 20
26 55 75
26 56 106
26 57 112
26 58 101
26 59 149
26 60 140
27 28 25
27 29 144
27 30 140
27 31 178
27 32 113
27 33 28
27 34 134
27 35 120
27 36 35
27 37 163
27 38 42
27 39 31
27 40 19
27 41 144
27 42 92
27 43 174
27 44 25
27 45 174
27 46 20
27 47 110
27 48 8
27 49 83
27 50 126
27 51 3
27 52 116
27 53 57
27 54 67
27 55 22
27 56 17
27 57 161
27 58 95
27 59 122
27 60 156
28 29 133
28 30 41
28 31 171
28 32 33
28 33 5
28 34 43
28 35 27
28 36 30
28 37 11
28 38 121
28 39 49
28 40 64
28 41 85
28 42 14
28 43 153
28 44 49
28 45 7
28 46 23
28 47 81
28 48 146
28 49 57
28 50 102
28 51 136
28 52 159
28 53 46
28 54 48
28 55 129
28 56 57
28 57 16
28 58 119
28 59 22
28 60 63
29 30 148
29 31 101
29 32 64
29 33 158
29 34 66
29 35 45
29 36 3
29 37 15
29 38 111
29 39 62
29 40 77
29 41 14
29 42 41
29 43 65
29 44 140
29 45 136
29 46 104
29 47 150
29 48 40
29 49 2
29 50 5
29 51 67
29 52 134
29 53 110
29 54 37
29 55 20
29 56 46
29 57 65
29 58 47
29 59 38
29 60 98
30 31 84
30 32 136
30 33 14
30 34 169
30 35 156
30 36 101
30 37 60
30 38 173
30 39 146
30 40 142
30 41 178
30 42 52
30 43 127
30 44 6
30 45 6
30 46 3
30 47 124
30 48 118
30 49 146
30 50 167
30 51 87
30 52 123
30 53 147
30 54 55
30 55 79
30 56 49
30 57 142
30 58 105
30 59 81
30 60 148
31 32 115
31 33 115
31 34 9
31 35 8
31 36 128
31 37 84
31 38 61
31 39 138
31 40 100
31 41 128
31 42 60
31 43 172
31 44 39
31 45 10
31 46 10
31 47 152
31 48 12
31 49 21
31 50 158
31 51 151
31 52 75
31 53 15
31 54 135
31 55 105
31 56 35
31 57 125
31 58 40
31 59 54
31 60 35
32 33 157
32 34 119
32 35 107
32 36 53
32 37 59
32 38 103
32 39 49
32 40 175
32 41 75
32 42 17
32 43 112
32 44 30
32 45 20
32 46 60
32 47 37
32 48 7
32 49 77
32 50 6
32 51 11
32 52 133
32 53 79
32 54 109
32 55 65
32 56 71
32 57 127
32 58 165
32 59 155
32 60 159
33 34 32
33 35 132
33 36 56
33 37 27
33 38 94
33 39 109
33 40 75
33 41 129
33 42 43
33 43 116
33 44 35
33 45 97
33 46 58
33 47 134
33 48 74
33 49 135
33 50 132
33 51 151
33 52 170
33 53 73
33 54 21
33 55 92
33 56 77
33 57 150
33 58 131
33 59 54
33 60 120
34 35 88
34 36 146
34 37 84
34 38 121
34 39 55
34 40 151
34 41 161
34 42 2
34 43 24
34 44 18
34 45 169
34 46 111
34 47 23
34 48 147
34 49 16
34 50 21
34 51 73
34 52 4
34 53 96
34 54 139
34 55 154
34 56 134
34 57 117
34 58 145
34 59 124
34 60 170
35 36 57
35 37 155
35 38 55
35 39 11
35 40 173
35 41 142
35 42 163
35 43 67
35 44 116
35 45 163
35 46 131
35 47 37
35 48 23
35 49 83
35 50 130
35 51 168
35 52 130
35 53 174
35 54 25
35 55 66
35 56 84
35 57 127
35 58 14
35 59 162
35 60 34
36 37 34
36 38 142
36 39 81
36 40 23
36 41 174
36 42 160
36 43 104
36 44 24
36 45 23
36 46 149
36 47 173
36 48 59
36 49 146
36 50 93
36 51 133
36 52 151
36 53 68
36 54 105
36 55 40
36 56 147
36 57 136
36 58 54
36 59 18
36 60 94
37 38 141
37 39 14
37 40 148
37 41 39
37 42 74
37 43 66
37 44 147
37 45 2
37 46 69
37 47 46
37 48 28
37 49 130
37 50 80
37 51 130
37 52 24
37 53 38
37 54 159
37 55 34
37 56 79
37 57 132
37 58 174
37 59 22
37 60 15
38 39 38
38 40 44
38 41 88
38 42 170
38 43 14
38 44 162
38 45 26
38 46 56
38 47 174
38 48 97
38 49 172
38 50 59
38 51 123
38 52 10
38 53 5
38 54 85
38 55 31
38 56 71
38 57 130
38 58 132
38 59 77
38 60 148
39 40 111
39 41 144
39 42 11
39 43 116
39 44 145
39 45 104
39 46 58
39 47 9
39 48 35
39 49 171
39 50 36
39 51 155
39 52 72
39 53 168
39 54 42
39 55 19
39 56 143
39 57 124
39 58 122
39 59 78
39 60 124
40 41 108
40 42 74
40 43 162
40 44 128
40 45 45
40 46 62
40 47 157
40 48 106
40 49 18
40 50 27
40 51 104
40 52 99
40 53 78
40 54 171
40 55 107
40 56 14
40 57 25
40 58 30
40 59 101
40 60 179
41 42 165
41 43 123
41 44 59
41 45 137
41 46 105
41 47 147
41 48 96
41 49 150
41 50 79
41 51 65
41 52 28
41 53 170
41 54 47
41 55 20
41 56 76
41 57 122
41 58 34
41 59 123
41 60 172
42 43 140
42 44 55
42 45 127
42 46 148
42 47 85
42 48 138
42 49 154
42 50 145
42 51 2
42 52 26
42 53 66
42 54 167
42 55 5
42 56 76
42 57 34
42 58 80
42 59 16
42 60 64
43 44 20
43 45 2
43 46 131
43 47 116
43 48 128
43 49 112
43 50 87
43 51 22
43 52 83
43 53 122
43 54 81
43 55 47
43 56 151
43 57 34
43 58 57
43 59 14
43 60 84
44 45 94
44 46 144
44 47 134
44 48 17
44 49 8
44 50 97
44 51 146
44 52 92
44 53 67
44 54 79
44 55 124
44 56 98
44 57 124
44 58 58
44 59 68
44 60 67
45 46 161
45 47 83
45 48 64
45 49 85
45 50 97
45 51 9
45 52 163
45 53 110
45 54 48
45 55 1
45 56 166
45 57 13
45 58 112
45 59 7
45 60 7
46 47 169
46 48 37
46 49 116
46 50 133
46 51 51
46 52 53
46 53 39
46 54 88
46 55 24
46 56 94
46 57 57
46 58 163
46 59 148
46 60 93
47 48 155
47 49 61
47 50 19
47 51 64
47 52 50
47 53 136
47 54 3
47 55 147
47 56 36
47 57 3
47 58 32
47 59 80
47 60 53
48 49 85
48 50 16
48 51 153
48 52 145
48 53 76
48 54 0
48 55 175
48 56 131
48 57 87
48 58 69
48 59 17
48 60 136
49 50 106
49 51 131
49 52 55
49 53 76
49 54 44
49 55 46
49 56 80
49 57 108
49 58 70
49 59 137
49 60 113
50 51 109
50 52 167
50 53 28
50 54 43
50 55 119
50 56 36
50 57 150
50 58 153
50 59 150
50 60 45
51 52 118
51 53 37
51 54 113
51 55 50
51 56 13
51 57 162
51 58 165
51 59 170
51 60 108
52 53 122
52 54 68
52 55 13
52 56 30
52 57 118
52 58 7
52 59 142
52 60 174
53 54 102
53 55 54
53 56 44
53 57 52
53 58 130
53 59 143
53 60 84
54 55 78
54 56 89
54 57 165
54 58 11
54 59 22
54 60 4
55 56 18
55 57 143
55 58 147
55 59 125
55 60 122
56 57 121
56 58 35
56 59 132
56 60 73
57 58 74
57 59 104
57 60 164
58 59 129
58 60 174
59 60 21
